Copyright (C) 2013-2015, Filipe Brandao
Build (method = -2)
  #dp: 186037
  Step-3' Graph: 855 vertices and 70550 arcs (1.24s)
  Step-4' Graph: 852 vertices and 70544 arcs (1.26s)
  #V4/#V3 = 1.00
  #A4/#A3 = 1.00
Ready! (1.26s)
Optimize a model with 990 rows, 70545 columns and 209939 nonzeros
Presolve removed 2 rows and 2 columns
Presolve time: 0.35s
Presolved: 988 rows, 70543 columns, 209935 nonzeros
Variable types: 0 continuous, 70543 integer (7020 binary)
Optimize a model with 988 rows, 70543 columns and 209935 nonzeros
Presolved: 988 rows, 70543 columns, 209935 nonzeros

Root barrier log...

Ordering time: 0.01s

Barrier statistics:
 AA' NZ     : 1.312e+05
 Factor NZ  : 2.725e+05 (roughly 30 MBytes of memory)
 Factor Ops : 9.512e+07 (less than 1 second per iteration)
 Threads    : 1

                  Objective                Residual
Iter       Primal          Dual         Primal    Dual     Compl     Time
   0   4.66119054e+05 -3.91650796e+06  1.82e+07 2.90e-02  1.86e+03     0s
   1   1.55854412e+05 -1.14081425e+06  3.63e+06 1.11e-15  3.73e+02     0s
   2   1.68887291e+04 -3.61972628e+05  2.54e+05 1.55e-14  2.82e+01     0s
   3   3.69981395e+03 -1.69056117e+05  2.02e+04 7.80e-04  3.14e+00     0s
   4   3.48449366e+03 -1.14633383e+05  8.39e+03 3.53e-04  1.53e+00     0s
   5   3.03626676e+03 -7.53405937e+04  5.01e+03 9.98e-05  9.14e-01     0s
   6   2.26037088e+03 -4.93069722e+04  2.52e+03 1.15e-14  5.27e-01     0s
   7   1.68962064e+03 -2.44721533e+04  1.36e+03 2.00e-14  2.61e-01     0s
   8   1.47092583e+03 -1.71996574e+04  1.06e+03 1.20e-14  1.87e-01     0s
   9   1.28424986e+03 -1.20271825e+04  8.33e+02 1.11e-14  1.33e-01     1s
  10   1.10862516e+03 -9.99730090e+03  6.21e+02 1.09e-14  1.06e-01     1s
  11   9.09257952e+02 -7.36420276e+03  3.76e+02 6.44e-15  7.35e-02     1s
  12   8.10240789e+02 -4.45384522e+03  2.64e+02 5.22e-15  4.55e-02     1s
  13   7.62383707e+02 -2.64368192e+03  2.08e+02 4.00e-15  2.91e-02     1s
  14   6.95667523e+02 -2.24590074e+03  1.32e+02 3.66e-15  2.37e-02     1s
  15   6.65938021e+02 -1.86164246e+03  1.00e+02 3.33e-15  1.98e-02     1s
  16   6.49427872e+02 -1.54945481e+03  8.54e+01 2.66e-15  1.71e-02     1s
  17   6.31858687e+02 -1.44646497e+03  8.08e+01 2.44e-15  1.62e-02     1s
  18   5.77694513e+02 -1.19346598e+03  6.08e+01 2.00e-15  1.36e-02     1s
  19   4.79039284e+02 -8.22591191e+02  3.90e+01 1.44e-15  9.88e-03     1s
  20   4.54341859e+02 -6.97849232e+02  3.63e+01 1.33e-15  8.76e-03     1s
  21   4.07882532e+02 -5.55649193e+02  3.05e+01 9.99e-16  7.32e-03     1s
  22   3.30565813e+02 -4.56755926e+02  2.47e+01 8.88e-16  5.96e-03     1s
  23   2.84124687e+02 -2.80744705e+02  2.09e+01 8.88e-16  4.31e-03     1s
  24   1.67253315e+02 -1.13943416e+02  1.12e+01 6.93e-16  2.14e-03     1s
  25   1.27211658e+02 -6.62444027e+01  7.57e+00 6.66e-16  1.46e-03     1s
  26   1.12906711e+02 -5.70760437e+01  6.21e+00 7.69e-16  1.28e-03     1s
  27   1.08249126e+02 -5.42710323e+01  5.69e+00 8.46e-16  1.22e-03     1s
  28   1.02216057e+02 -3.03116959e+01  5.10e+00 8.26e-16  9.93e-04     1s
  29   8.52100966e+01 -1.51792513e+01  3.32e+00 7.33e-16  7.43e-04     1s
  30   8.32414466e+01  1.81040328e+00  2.99e+00 6.76e-16  6.02e-04     1s
  31   8.32539472e+01  4.91726508e+00  2.95e+00 7.91e-16  5.79e-04     1s
  32   8.09202369e+01  1.48563320e+01  2.59e+00 8.32e-16  4.87e-04     1s
  33   7.61855402e+01  3.13813092e+01  1.63e+00 7.17e-16  3.27e-04     1s
  34   7.56258683e+01  4.67311173e+01  1.08e+00 5.55e-16  2.09e-04     1s
  35   7.52480014e+01  5.49436440e+01  6.32e-01 5.55e-16  1.46e-04     1s
  36   7.34965275e+01  6.23629507e+01  3.51e-01 4.83e-16  7.95e-05     2s
  37   7.24816626e+01  6.56428618e+01  1.91e-01 4.78e-16  4.87e-05     2s
  38   7.21219815e+01  6.79308414e+01  1.34e-01 5.07e-16  2.98e-05     2s
  39   7.18026017e+01  6.90630722e+01  8.45e-02 4.59e-16  1.95e-05     2s
  40   7.16441735e+01  6.99689850e+01  6.05e-02 4.87e-16  1.19e-05     2s
  41   7.14927366e+01  7.04003977e+01  3.77e-02 5.04e-16  7.77e-06     2s
  42   7.13364252e+01  7.05691652e+01  1.43e-02 5.60e-16  5.44e-06     2s
  43   7.13183675e+01  7.07821870e+01  1.17e-02 5.21e-16  3.81e-06     2s
  44   7.13029210e+01  7.09292467e+01  9.42e-03 5.15e-16  2.65e-06     2s
  45   7.12877030e+01  7.10978579e+01  7.22e-03 4.85e-16  1.35e-06     2s
  46   7.12476871e+01  7.11899197e+01  1.30e-03 4.43e-16  4.10e-07     2s
  47   7.12382701e+01  7.12212414e+01  5.50e-06 4.17e-16  1.21e-07     2s
  48   7.12380005e+01  7.12377278e+01  8.36e-09 4.20e-16  1.93e-09     2s
  49   7.12380000e+01  7.12380000e+01  1.27e-12 3.97e-16  2.42e-15     2s

Barrier solved model in 49 iterations and 2.02 seconds
Optimal objective 7.12380000e+01


Root relaxation: objective 7.123800e+01, 57179 iterations, 4.03 seconds
Total elapsed time = 11.62s
Total elapsed time = 15.68s
Total elapsed time = 20.18s

    Nodes    |    Current Node    |     Objective Bounds      |     Work
 Expl Unexpl |  Obj  Depth IntInf | Incumbent    BestBd   Gap | It/Node Time

     0     0   71.23800    0  254          -   71.23800     -      -   29s
H    0     0                      74.0000000   71.23800  3.73%     -   30s
H    0     0                      73.0000000   71.23800  2.41%     -   41s

Explored 0 nodes (96065 simplex iterations) in 60.00 seconds
Thread count was 1 (of 4 available processors)

Time limit reached
Best objective 7.300000000000e+01, best bound 7.200000000000e+01, gap 1.3699%
Preprocessing time: 1.39 seconds
Gurobi run time: 60.00 seconds
Total run time: 61.39 seconds
Objective: 73
Solution:
2 x [i=1, i=1, i=30, i=42, i=70, i=121]
1 x [i=2, i=7, i=18, i=33, i=91, i=115]
1 x [i=2, i=18, i=27, i=90, i=105, i=115, i=119]
1 x [i=3, i=7, i=31, i=88, i=104, i=113, i=130]
2 x [i=3, i=27, i=31, i=90, i=101, i=105, i=119]
1 x [i=3, i=31, i=117, i=133, i=135, i=136]
1 x [i=3, i=45, i=63, i=98, i=138]
1 x [i=4, i=13, i=47, i=88, i=91, i=108, i=125]
2 x [i=4, i=33, i=58, i=92, i=109, i=123, i=132, i=134]
1 x [i=4, i=60, i=60, i=78, i=88, i=94]
1 x [i=5, i=13, i=14, i=20, i=89, i=124]
1 x [i=5, i=50, i=64, i=72, i=80, i=91, i=115]
1 x [i=6, i=10, i=61, i=110, i=136]
1 x [i=6, i=12, i=23, i=33, i=85, i=107]
1 x [i=6, i=6, i=10, i=14, i=19]
1 x [i=6, i=6, i=10, i=14, i=115, i=115]
2 x [i=7, i=59, i=60, i=67, i=85, i=88, i=111]
1 x [i=8, i=27, i=30, i=76, i=100, i=115, i=120]
1 x [i=8, i=27, i=45, i=56, i=108, i=110, i=122]
1 x [i=8, i=27, i=58, i=92, i=109, i=125, i=134]
1 x [i=9, i=9, i=14, i=20, i=89, i=124]
1 x [i=10, i=17, i=53, i=77, i=89, i=113, i=117]
1 x [i=10, i=33, i=41, i=54, i=61, i=67]
1 x [i=11, i=13, i=41, i=84, i=97, i=114, i=116]
2 x [i=11, i=26, i=36, i=75, i=93, i=97, i=138]
1 x [i=11, i=32, i=43, i=61, i=74, i=125, i=129]
2 x [i=12, i=16, i=22, i=40, i=68, i=108]
1 x [i=12, i=16, i=22, i=67, i=69, i=80]
2 x [i=12, i=24, i=32, i=74, i=102, i=104, i=128]
1 x [i=12, i=43, i=53, i=57, i=74, i=111, i=126]
1 x [i=13, i=23, i=63, i=71, i=91, i=99, i=116]
1 x [i=13, i=63, i=71, i=91, i=98, i=99, i=116, i=135]
1 x [i=14, i=20, i=29, i=55, i=88, i=133, i=136]
1 x [i=14, i=25, i=54, i=70, i=80, i=115, i=118]
1 x [i=15, i=17, i=53, i=77, i=89]
2 x [i=15, i=15, i=42, i=53, i=64, i=77]
1 x [i=17, i=39, i=52, i=59, i=95, i=102, i=113]
2 x [i=19, i=44, i=51, i=59, i=85, i=87, i=131]
1 x [i=19, i=51, i=51, i=52, i=59, i=116, i=127]
1 x [i=19, i=51, i=51, i=55, i=59, i=114, i=127]
1 x [i=21, i=45, i=61, i=67, i=71, i=74, i=137]
1 x [i=21, i=45, i=45, i=62, i=76, i=95, i=132]
1 x [i=22, i=41, i=48, i=62, i=82, i=95, i=126]
1 x [i=23, i=30, i=42, i=70, i=83, i=107, i=121]
1 x [i=24, i=26, i=38, i=69, i=75, i=106, i=138]
1 x [i=24, i=38, i=41, i=48, i=53, i=62]
1 x [i=25, i=63, i=70, i=77, i=86, i=118, i=132]
2 x [i=25, i=72, i=72, i=76, i=99, i=107, i=112, i=124]
1 x [i=26, i=36, i=46, i=58, i=75, i=97, i=138]
1 x [i=28, i=37, i=49, i=52, i=100, i=102, i=109]
1 x [i=28, i=49, i=61, i=100, i=108, i=109, i=110, i=122]
1 x [i=29, i=38, i=39, i=62, i=92, i=104, i=113]
1 x [i=34, i=72, i=72, i=76, i=91, i=107, i=108, i=127]
2 x [i=35, i=47, i=68, i=86, i=95, i=98, i=125, i=132]
1 x [i=44, i=56, i=62, i=65, i=73, i=81, i=96]
1 x [i=44, i=66, i=70, i=74, i=85, i=98, i=118, i=131]
2 x [i=44, i=67, i=67, i=79, i=83, i=86, i=124, i=136]
1 x [i=48, i=56, i=81, i=88, i=91, i=92, i=112, i=119]
1 x [i=50, i=72, i=78, i=80, i=91, i=93, i=103, i=120]
1 x [i=56, i=65, i=73, i=81, i=90, i=96, i=105, i=121]
1 x [i=62, i=67, i=88, i=119, i=136]
